60
1 0 2
2 0 4
2 1 1
3 0 1
3 1 5
3 2 5
4 0 2
4 1 2
4 2 3
4 3 1
5 0 5
5 1 2
5 2 1
5 3 4
5 4 2
6 0 3
6 1 4
6 2 3
6 3 3
6 4 2
6 5 3
7 0 5
7 1 1
7 2 3
7 3 4
7 4 1
7 5 4
7 6 1
8 0 2
8 1 4
8 2 2
8 3 2
8 4 1
8 5 2
8 6 4
8 7 5
9 0 5
9 1 3
9 2 1
9 3 2
9 4 5
9 5 5
9 6 5
9 7 4
9 8 5
10 0 2
10 1 4
10 2 2
10 3 4
10 4 5
10 5 3
10 6 2
10 7 3
10 8 4
10 9 2
11 0 2
11 1 1
11 2 1
11 3 1
11 4 4
11 5 2
11 6 4
11 7 5
11 8 5
11 9 5
11 10 2
12 0 2
12 1 1
12 2 3
12 3 5
12 4 5
12 5 4
12 6 5
12 7 3
12 8 5
12 9 1
12 10 1
12 11 2
13 0 2
13 1 3
13 2 5
13 3 1
13 4 3
13 5 5
13 6 4
13 7 4
13 8 4
13 9 2
13 10 2
13 11 1
13 12 3
14 0 4
14 1 1
14 2 5
14 3 1
14 4 4
14 5 2
14 6 4
14 7 2
14 8 1
14 9 2
14 10 5
14 11 2
14 12 2
14 13 3
15 0 1
15 1 5
15 2 3
15 3 3
15 4 3
15 5 4
15 6 3
15 7 3
15 8 2
15 9 1
15 10 4
15 11 1
15 12 2
15 13 1
15 14 4
16 0 1
16 1 1
16 2 5
16 3 3
16 4 3
16 5 4
16 6 4
16 7 2
16 8 3
16 9 2
16 10 3
16 11 2
16 12 4
16 13 4
16 14 2
16 15 5
17 0 4
17 1 5
17 2 3
17 3 1
17 4 1
17 5 4
17 6 3
17 7 1
17 8 4
17 9 2
17 10 3
17 11 3
17 12 1
17 13 4
17 14 5
17 15 4
17 16 2
18 0 2
18 1 3
18 2 4
18 3 4
18 4 5
18 5 1
18 6 1
18 7 4
18 8 3
18 9 4
18 10 3
18 11 1
18 12 2
18 13 5
18 14 3
18 15 5
18 16 5
18 17 1
19 0 3
19 1 2
19 2 4
19 3 3
19 4 5
19 5 2
19 6 1
19 7 4
19 8 5
19 9 1
19 10 4
19 11 5
19 12 4
19 13 2
19 14 1
19 15 1
19 16 1
19 17 2
19 18 5
20 0 5
20 1 5
20 2 3
20 3 5
20 4 5
20 5 2
20 6 3
20 7 1
20 8 5
20 9 2
20 10 1
20 11 5
20 12 4
20 13 4
20 14 1
20 15 5
20 16 5
20 17 3
20 18 1
20 19 5
21 0 2
21 1 5
21 2 1
21 3 2
21 4 5
21 5 5
21 6 5
21 7 5
21 8 1
21 9 2
21 10 4
21 11 4
21 12 4
21 13 1
21 14 5
21 15 5
21 16 1
21 17 5
21 18 3
21 19 4
21 20 4
22 0 5
22 1 2
22 2 3
22 3 2
22 4 2
22 5 3
22 6 4
22 7 1
22 8 2
22 9 1
22 10 5
22 11 1
22 12 5
22 13 4
22 14 3
22 15 3
22 16 1
22 17 4
22 18 1
22 19 3
22 20 2
22 21 2
23 0 4
23 1 4
23 2 2
23 3 3
23 4 5
23 5 1
23 6 1
23 7 3
23 8 5
23 9 4
23 10 2
23 11 2
23 12 5
23 13 5
23 14 1
23 15 2
23 16 1
23 17 4
23 18 3
23 19 1
23 20 5
23 21 3
23 22 3
24 0 4
24 1 5
24 2 4
24 3 4
24 4 4
24 5 5
24 6 5
24 7 2
24 8 1
24 9 3
24 10 1
24 11 4
24 12 2
24 13 5
24 14 3
24 15 1
24 16 1
24 17 2
24 18 4
24 19 1
24 20 4
24 21 1
24 22 3
24 23 5
25 0 3
25 1 3
25 2 1
25 3 1
25 4 1
25 5 4
25 6 4
25 7 2
25 8 1
25 9 5
25 10 1
25 11 2
25 12 4
25 13 3
25 14 2
25 15 1
25 16 3
25 17 5
25 18 3
25 19 2
25 20 5
25 21 3
25 22 5
25 23 3
25 24 2
26 0 5
26 1 4
26 2 5
26 3 3
26 4 1
26 5 1
26 6 1
26 7 5
26 8 3
26 9 2
26 10 2
26 11 4
26 12 3
26 13 3
26 14 1
26 15 1
26 16 4
26 17 4
26 18 1
26 19 3
26 20 3
26 21 4
26 22 3
26 23 4
26 24 2
26 25 2
27 0 3
27 1 3
27 2 4
27 3 4
27 4 1
27 5 2
27 6 1
27 7 5
27 8 3
27 9 2
27 10 1
27 11 5
27 12 1
27 13 2
27 14 4
27 15 2
27 16 5
27 17 3
27 18 1
27 19 4
27 20 5
27 21 2
27 22 4
27 23 1
27 24 3
27 25 2
27 26 1
28 0 4
28 1 1
28 2 2
28 3 5
28 4 3
28 5 4
28 6 3
28 7 2
28 8 5
28 9 2
28 10 3
28 11 5
28 12 4
28 13 1
28 14 1
28 15 3
28 16 4
28 17 3
28 18 5
28 19 2
28 20 3
28 21 2
28 22 2
28 23 5
28 24 5
28 25 1
28 26 2
28 27 5
29 0 4
29 1 3
29 2 4
29 3 5
29 4 4
29 5 5
29 6 1
29 7 2
29 8 2
29 9 5
29 10 3
29 11 5
29 12 5
29 13 4
29 14 4
29 15 3
29 16 3
29 17 5
29 18 1
29 19 4
29 20 4
29 21 5
29 22 4
29 23 1
29 24 5
29 25 1
29 26 4
29 27 5
29 28 4
30 0 2
30 1 3
30 2 4
30 3 5
30 4 2
30 5 3
30 6 2
30 7 3
30 8 3
30 9 2
30 10 5
30 11 5
30 12 5
30 13 4
30 14 5
30 15 3
30 16 5
30 17 1
30 18 1
30 19 4
30 20 4
30 21 5
30 22 5
30 23 3
30 24 3
30 25 2
30 26 5
30 27 4
30 28 4
30 29 4
31 0 4
31 1 2
31 2 4
31 3 5
31 4 4
31 5 4
31 6 5
31 7 3
31 8 4
31 9 3
31 10 3
31 11 3
31 12 2
31 13 3
31 14 5
31 15 4
31 16 3
31 17 3
31 18 3
31 19 2
31 20 3
31 21 3
31 22 1
31 23 1
31 24 3
31 25 5
31 26 1
31 27 4
31 28 1
31 29 5
31 30 1
32 0 5
32 1 5
32 2 5
32 3 5
32 4 3
32 5 4
32 6 3
32 7 3
32 8 3
32 9 4
32 10 3
32 11 5
32 12 4
32 13 4
32 14 4
32 15 1
32 16 2
32 17 2
32 18 1
32 19 4
32 20 2
32 21 2
32 22 5
32 23 5
32 24 2
32 25 2
32 26 4
32 27 5
32 28 1
32 29 1
32 30 2
32 31 5
33 0 4
33 1 3
33 2 1
33 3 1
33 4 4
33 5 3
33 6 1
33 7 2
33 8 1
33 9 5
33 10 2
33 11 5
33 12 3
33 13 2
33 14 2
33 15 1
33 16 3
33 17 1
33 18 3
33 19 4
33 20 1
33 21 4
33 22 2
33 23 1
33 24 1
33 25 4
33 26 4
33 27 5
33 28 3
33 29 5
33 30 1
33 31 4
33 32 5
34 0 5
34 1 1
34 2 1
34 3 1
34 4 5
34 5 4
34 6 2
34 7 5
34 8 4
34 9 2
34 10 3
34 11 5
34 12 2
34 13 1
34 14 3
34 15 4
34 16 4
34 17 3
34 18 5
34 19 1
34 20 3
34 21 1
34 22 2
34 23 1
34 24 1
34 25 4
34 26 5
34 27 2
34 28 5
34 29 1
34 30 3
34 31 2
34 32 1
34 33 1
35 0 5
35 1 2
35 2 2
35 3 2
35 4 2
35 5 3
35 6 5
35 7 3
35 8 3
35 9 2
35 10 4
35 11 5
35 12 5
35 13 5
35 14 3
35 15 2
35 16 4
35 17 1
35 18 1
35 19 4
35 20 4
35 21 2
35 22 5
35 23 3
35 24 4
35 25 2
35 26 4
35 27 4
35 28 1
35 29 5
35 30 4
35 31 1
35 32 4
35 33 5
35 34 3
36 0 2
36 1 3
36 2 2
36 3 5
36 4 5
36 5 5
36 6 5
36 7 5
36 8 3
36 9 2
36 10 3
36 11 4
36 12 2
36 13 3
36 14 5
36 15 5
36 16 4
36 17 5
36 18 4
36 19 1
36 20 2
36 21 1
36 22 2
36 23 5
36 24 4
36 25 1
36 26 2
36 27 3
36 28 2
36 29 3
36 30 3
36 31 3
36 32 3
36 33 5
36 34 3
36 35 2
37 0 3
37 1 1
37 2 3
37 3 4
37 4 4
37 5 3
37 6 2
37 7 1
37 8 3
37 9 2
37 10 4
37 11 5
37 12 4
37 13 3
37 14 3
37 15 4
37 16 2
37 17 3
37 18 3
37 19 3
37 20 4
37 21 2
37 22 5
37 23 4
37 24 4
37 25 5
37 26 5
37 27 5
37 28 3
37 29 1
37 30 3
37 31 2
37 32 2
37 33 3
37 34 3
37 35 5
37 36 2
38 0 5
38 1 2
38 2 4
38 3 1
38 4 1
38 5 5
38 6 4
38 7 4
38 8 3
38 9 3
38 10 3
38 11 5
38 12 3
38 13 3
38 14 3
38 15 1
38 16 2
38 17 1
38 18 5
38 19 4
38 20 2
38 21 2
38 22 5
38 23 4
38 24 3
38 25 2
38 26 3
38 27 2
38 28 4
38 29 1
38 30 5
38 31 4
38 32 3
38 33 2
38 34 3
38 35 1
38 36 3
38 37 2
39 0 3
39 1 5
39 2 4
39 3 2
39 4 3
39 5 2
39 6 3
39 7 2
39 8 2
39 9 1
39 10 5
39 11 2
39 12 1
39 13 2
39 14 4
39 15 5
39 16 2
39 17 1
39 18 2
39 19 5
39 20 4
39 21 4
39 22 4
39 23 1
39 24 1
39 25 1
39 26 1
39 27 5
39 28 5
39 29 5
39 30 3
39 31 1
39 32 5
39 33 2
39 34 2
39 35 1
39 36 3
39 37 4
39 38 3
40 0 1
40 1 3
40 2 4
40 3 5
40 4 2
40 5 2
40 6 2
40 7 1
40 8 1
40 9 5
40 10 4
40 11 5
40 12 1
40 13 5
40 14 1
40 15 2
40 16 2
40 17 4
40 18 2
40 19 5
40 20 5
40 21 4
40 22 1
40 23 4
40 24 2
40 25 2
40 26 1
40 27 4
40 28 3
40 29 5
40 30 1
40 31 5
40 32 2
40 33 3
40 34 4
40 35 4
40 36 2
40 37 4
40 38 5
40 39 5
41 0 1
41 1 4
41 2 2
41 3 1
41 4 3
41 5 1
41 6 2
41 7 2
41 8 1
41 9 4
41 10 3
41 11 5
41 12 2
41 13 4
41 14 3
41 15 1
41 16 5
41 17 1
41 18 1
41 19 1
41 20 4
41 21 3
41 22 2
41 23 3
41 24 4
41 25 5
41 26 3
41 27 4
41 28 4
41 29 3
41 30 1
41 31 3
41 32 2
41 33 2
41 34 1
41 35 4
41 36 3
41 37 4
41 38 1
41 39 3
41 40 4
42 0 4
42 1 2
42 2 2
42 3 1
42 4 2
42 5 1
42 6 4
42 7 4
42 8 3
42 9 4
42 10 2
42 11 2
42 12 3
42 13 1
42 14 4
42 15 3
42 16 5
42 17 2
42 18 4
42 19 3
42 20 4
42 21 1
42 22 1
42 23 5
42 24 4
42 25 5
42 26 4
42 27 5
42 28 5
42 29 3
42 30 5
42 31 1
42 32 4
42 33 1
42 34 4
42 35 4
42 36 4
42 37 4
42 38 1
42 39 4
42 40 4
42 41 1
43 0 3
43 1 4
43 2 3
43 3 2
43 4 2
43 5 2
43 6 4
43 7 2
43 8 5
43 9 1
43 10 5
43 11 1
43 12 1
43 13 5
43 14 3
43 15 1
43 16 1
43 17 2
43 18 5
43 19 3
43 20 4
43 21 4
43 22 3
43 23 5
43 24 5
43 25 5
43 26 2
43 27 2
43 28 3
43 29 5
43 30 5
43 31 2
43 32 5
43 33 5
43 34 1
43 35 1
43 36 4
43 37 1
43 38 5
43 39 5
43 40 2
43 41 1
43 42 1
44 0 1
44 1 3
44 2 2
44 3 2
44 4 5
44 5 3
44 6 4
44 7 5
44 8 5
44 9 4
44 10 5
44 11 5
44 12 5
44 13 2
44 14 3
44 15 3
44 16 4
44 17 3
44 18 5
44 19 4
44 20 5
44 21 3
44 22 4
44 23 1
44 24 1
44 25 1
44 26 1
44 27 5
44 28 4
44 29 2
44 30 3
44 31 2
44 32 1
44 33 4
44 34 5
44 35 1
44 36 2
44 37 2
44 38 2
44 39 1
44 40 5
44 41 3
44 42 1
44 43 1
45 0 4
45 1 3
45 2 1
45 3 5
45 4 1
45 5 3
45 6 2
45 7 1
45 8 1
45 9 3
45 10 1
45 11 1
45 12 2
45 13 2
45 14 3
45 15 3
45 16 3
45 17 5
45 18 5
45 19 1
45 20 2
45 21 3
45 22 4
45 23 3
45 24 1
45 25 3
45 26 2
45 27 4
45 28 1
45 29 3
45 30 4
45 31 5
45 32 4
45 33 5
45 34 1
45 35 4
45 36 5
45 37 3
45 38 2
45 39 4
45 40 1
45 41 2
45 42 2
45 43 1
45 44 5
46 0 5
46 1 3
46 2 4
46 3 2
46 4 1
46 5 5
46 6 4
46 7 2
46 8 2
46 9 1
46 10 3
46 11 1
46 12 1
46 13 5
46 14 4
46 15 4
46 16 5
46 17 5
46 18 2
46 19 4
46 20 1
46 21 5
46 22 1
46 23 2
46 24 1
46 25 5
46 26 2
46 27 1
46 28 2
46 29 3
46 30 3
46 31 3
46 32 4
46 33 2
46 34 1
46 35 4
46 36 2
46 37 2
46 38 3
46 39 1
46 40 4
46 41 3
46 42 3
46 43 3
46 44 5
46 45 2
47 0 2
47 1 3
47 2 1
47 3 1
47 4 1
47 5 2
47 6 4
47 7 5
47 8 1
47 9 4
47 10 2
47 11 5
47 12 3
47 13 4
47 14 1
47 15 3
47 16 3
47 17 5
47 18 5
47 19 5
47 20 5
47 21 4
47 22 2
47 23 2
47 24 1
47 25 2
47 26 5
47 27 2
47 28 3
47 29 5
47 30 4
47 31 1
47 32 1
47 33 4
47 34 5
47 35 2
47 36 2
47 37 4
47 38 2
47 39 5
47 40 5
47 41 2
47 42 4
47 43 1
47 44 3
47 45 3
47 46 1
48 0 4
48 1 5
48 2 2
48 3 3
48 4 2
48 5 2
48 6 4
48 7 4
48 8 2
48 9 4
48 10 4
48 11 5
48 12 1
48 13 3
48 14 3
48 15 3
48 16 2
48 17 3
48 18 2
48 19 5
48 20 2
48 21 3
48 22 1
48 23 4
48 24 2
48 25 4
48 26 5
48 27 5
48 28 2
48 29 1
48 30 5
48 31 5
48 32 5
48 33 1
48 34 2
48 35 4
48 36 5
48 37 5
48 38 4
48 39 4
48 40 4
48 41 5
48 42 1
48 43 2
48 44 2
48 45 5
48 46 5
48 47 2
49 0 5
49 1 2
49 2 2
49 3 1
49 4 1
49 5 1
49 6 2
49 7 1
49 8 2
49 9 5
49 10 3
49 11 2
49 12 2
49 13 2
49 14 3
49 15 3
49 16 3
49 17 5
49 18 3
49 19 3
49 20 2
49 21 1
49 22 4
49 23 2
49 24 3
49 25 2
49 26 2
49 27 2
49 28 5
49 29 2
49 30 4
49 31 2
49 32 4
49 33 4
49 34 1
49 35 4
49 36 1
49 37 5
49 38 1
49 39 4
49 40 5
49 41 5
49 42 5
49 43 1
49 44 5
49 45 4
49 46 4
49 47 3
49 48 5
50 0 4
50 1 4
50 2 2
50 3 2
50 4 2
50 5 5
50 6 1
50 7 3
50 8 2
50 9 4
50 10 4
50 11 4
50 12 5
50 13 5
50 14 2
50 15 4
50 16 2
50 17 5
50 18 4
50 19 5
50 20 4
50 21 5
50 22 3
50 23 1
50 24 1
50 25 5
50 26 3
50 27 5
50 28 3
50 29 3
50 30 3
50 31 5
50 32 4
50 33 3
50 34 2
50 35 2
50 36 1
50 37 4
50 38 3
50 39 1
50 40 4
50 41 2
50 42 1
50 43 5
50 44 1
50 45 1
50 46 4
50 47 3
50 48 2
50 49 3
51 0 2
51 1 3
51 2 5
51 3 4
51 4 4
51 5 5
51 6 2
51 7 3
51 8 4
51 9 5
51 10 4
51 11 1
51 12 1
51 13 3
51 14 4
51 15 1
51 16 2
51 17 4
51 18 5
51 19 4
51 20 4
51 21 5
51 22 5
51 23 1
51 24 1
51 25 5
51 26 1
51 27 3
51 28 2
51 29 5
51 30 4
51 31 1
51 32 4
51 33 2
51 34 4
51 35 3
51 36 3
51 37 1
51 38 4
51 39 2
51 40 3
51 41 4
51 42 5
51 43 3
51 44 4
51 45 4
51 46 1
51 47 2
51 48 5
51 49 3
51 50 5
52 0 4
52 1 3
52 2 4
52 3 5
52 4 4
52 5 4
52 6 2
52 7 5
52 8 4
52 9 4
52 10 3
52 11 3
52 12 1
52 13 1
52 14 3
52 15 2
52 16 1
52 17 5
52 18 4
52 19 3
52 20 4
52 21 1
52 22 5
52 23 5
52 24 4
52 25 5
52 26 5
52 27 4
52 28 5
52 29 5
52 30 5
52 31 1
52 32 1
52 33 2
52 34 3
52 35 4
52 36 1
52 37 4
52 38 1
52 39 4
52 40 2
52 41 3
52 42 1
52 43 4
52 44 1
52 45 3
52 46 5
52 47 2
52 48 1
52 49 4
52 50 1
52 51 5
53 0 3
53 1 1
53 2 4
53 3 4
53 4 2
53 5 5
53 6 2
53 7 5
53 8 2
53 9 3
53 10 2
53 11 3
53 12 2
53 13 5
53 14 3
53 15 4
53 16 1
53 17 3
53 18 5
53 19 4
53 20 2
53 21 2
53 22 5
53 23 3
53 24 4
53 25 2
53 26 2
53 27 5
53 28 5
53 29 4
53 30 5
53 31 5
53 32 1
53 33 2
53 34 1
53 35 5
53 36 2
53 37 1
53 38 5
53 39 5
53 40 5
53 41 1
53 42 1
53 43 2
53 44 4
53 45 1
53 46 3
53 47 3
53 48 3
53 49 1
53 50 4
53 51 2
53 52 4
54 0 3
54 1 3
54 2 4
54 3 2
54 4 3
54 5 2
54 6 5
54 7 2
54 8 3
54 9 3
54 10 4
54 11 2
54 12 2
54 13 4
54 14 2
54 15 5
54 16 5
54 17 4
54 18 5
54 19 4
54 20 4
54 21 5
54 22 3
54 23 1
54 24 3
54 25 4
54 26 3
54 27 4
54 28 4
54 29 3
54 30 2
54 31 3
54 32 2
54 33 1
54 34 4
54 35 2
54 36 4
54 37 4
54 38 3
54 39 3
54 40 3
54 41 4
54 42 4
54 43 4
54 44 5
54 45 4
54 46 1
54 47 5
54 48 2
54 49 4
54 50 2
54 51 5
54 52 1
54 53 3
55 0 5
55 1 5
55 2 2
55 3 5
55 4 1
55 5 5
55 6 2
55 7 1
55 8 4
55 9 3
55 10 1
55 11 5
55 12 4
55 13 4
55 14 5
55 15 2
55 16 3
55 17 2
55 18 1
55 19 5
55 20 3
55 21 2
55 22 5
55 23 1
55 24 1
55 25 5
55 26 3
55 27 4
55 28 2
55 29 1
55 30 1
55 31 1
55 32 3
55 33 3
55 34 3
55 35 4
55 36 5
55 37 4
55 38 5
55 39 5
55 40 5
55 41 3
55 42 3
55 43 4
55 44 4
55 45 4
55 46 3
55 47 1
55 48 2
55 49 4
55 50 2
55 51 3
55 52 1
55 53 4
55 54 3
56 0 1
56 1 4
56 2 5
56 3 1
56 4 5
56 5 2
56 6 4
56 7 1
56 8 4
56 9 5
56 10 5
56 11 3
56 12 5
56 13 5
56 14 4
56 15 4
56 16 5
56 17 5
56 18 5
56 19 4
56 20 4
56 21 2
56 22 1
56 23 2
56 24 4
56 25 3
56 26 3
56 27 1
56 28 2
56 29 5
56 30 4
56 31 5
56 32 2
56 33 5
56 34 5
56 35 4
56 36 2
56 37 5
56 38 3
56 39 1
56 40 2
56 41 4
56 42 4
56 43 1
56 44 3
56 45 1
56 46 1
56 47 5
56 48 4
56 49 5
56 50 5
56 51 2
56 52 2
56 53 4
56 54 1
56 55 1
57 0 2
57 1 2
57 2 2
57 3 4
57 4 1
57 5 2
57 6 5
57 7 5
57 8 4
57 9 5
57 10 4
57 11 5
57 12 4
57 13 3
57 14 4
57 15 5
57 16 4
57 17 1
57 18 1
57 19 5
57 20 2
57 21 3
57 22 3
57 23 5
57 24 2
57 25 3
57 26 3
57 27 5
57 28 4
57 29 2
57 30 5
57 31 5
57 32 1
57 33 5
57 34 1
57 35 1
57 36 5
57 37 4
57 38 2
57 39 1
57 40 2
57 41 1
57 42 2
57 43 3
57 44 5
57 45 1
57 46 2
57 47 4
57 48 2
57 49 5
57 50 5
57 51 5
57 52 4
57 53 1
57 54 2
57 55 4
57 56 3
58 0 5
58 1 2
58 2 2
58 3 3
58 4 1
58 5 5
58 6 3
58 7 3
58 8 4
58 9 5
58 10 4
58 11 2
58 12 2
58 13 4
58 14 4
58 15 2
58 16 1
58 17 5
58 18 5
58 19 4
58 20 4
58 21 4
58 22 3
58 23 3
58 24 3
58 25 1
58 26 5
58 27 1
58 28 1
58 29 1
58 30 3
58 31 1
58 32 1
58 33 5
58 34 4
58 35 1
58 36 5
58 37 4
58 38 5
58 39 2
58 40 2
58 41 5
58 42 2
58 43 2
58 44 2
58 45 2
58 46 5
58 47 1
58 48 4
58 49 5
58 50 3
58 51 3
58 52 3
58 53 1
58 54 4
58 55 5
58 56 2
58 57 1
59 0 4
59 1 4
59 2 5
59 3 3
59 4 5
59 5 4
59 6 1
59 7 3
59 8 4
59 9 4
59 10 2
59 11 3
59 12 4
59 13 4
59 14 5
59 15 3
59 16 1
59 17 5
59 18 1
59 19 1
59 20 2
59 21 3
59 22 5
59 23 4
59 24 1
59 25 1
59 26 4
59 27 3
59 28 5
59 29 3
59 30 3
59 31 5
59 32 3
59 33 2
59 34 3
59 35 2
59 36 5
59 37 1
59 38 4
59 39 2
59 40 3
59 41 3
59 42 2
59 43 3
59 44 2
59 45 4
59 46 5
59 47 1
59 48 1
59 49 3
59 50 5
59 51 4
59 52 1
59 53 2
59 54 1
59 55 2
59 56 1
59 57 2
59 58 4
